(set-logic LIA)
(declare-var x Int)
(declare-var y Int)
(declare-var z1 Int)
(declare-var z2 Int)
(declare-var z3 Int)
(declare-var x! Int)
(declare-var y! Int)
(declare-var z1! Int)
(declare-var z2! Int)
(declare-var z3! Int)
(synth-fun inv-f((parameter0 Int)(parameter1 Int)(parameter2 Int)(parameter3 Int)(parameter4 Int))Bool) 
(constraint (=> (= x (- 15000))(inv-f x y z1 z2 z3 )))
(constraint (=> (and (inv-f x y z1 z2 z3 ) (and (and (< x 0) (= x! (+ x y )) ) (= y! (+ y 1 )) ) )(inv-f x! y! z1! z2! z3! )))
(constraint (=> (inv-f x y z1 z2 z3 )(not (and (>= x 0) (<= y 0) ))))
(check-synth)

